DATASET = "thpack7";
INSTANCE = "014";

WIDTH = 233;
HEIGHT = 220;
LENGTH = 587;

NO_OF_SHAPES = 20;
size = [|
  68,48,31 |
  104,80,63 |
  82,46,21 |
  114,78,60 |
  90,74,66 |
  112,54,36 |
  71,64,54 |
  74,53,33 |
  75,62,57 |
  68,62,52 |
  64,49,47 |
  60,39,36 |
  55,45,35 |
  59,35,31 |
  104,47,34 |
  81,74,38 |
  101,77,45 |
  116,55,36 |
  77,71,47 |
  90,73,38 |
|];

verticality = [|
  0,1,1 |
  1,1,1 |
  0,0,1 |
  1,1,1 |
  1,1,1 |
  0,1,1 |
  1,1,1 |
  0,1,1 |
  1,1,1 |
  1,1,1 |
  1,1,1 |
  1,1,1 |
  1,1,1 |
  1,1,1 |
  0,1,1 |
  0,1,1 |
  0,1,1 |
  0,1,1 |
  1,1,1 |
  0,1,1 |
|];

box_count = [
  4,
  10,
  6,
  9,
  4,
  3,
  4,
  8,
  4,
  4,
  7,
  4,
  7,
  4,
  3,
  9,
  8,
  7,
  6,
  8,
];
